SYSTEM = Al
ENCUT = 410

ISTART = 1
ICHARGE = 11
ISMEAR = -5
SIGMA = 0.1
LREAL = A

! DOS
LORBIT = 11
NEDOS = 2000
EMIN = -100
EMAX = 100
