System = Al
ISMEAR = 1; SIGMA = 0.1;
ENMAX  =  410
EDIFF  = 0.1E-05

ISTART=1

NELMDL = -7

NCORE = 32
KPAR = 8

ISYM = 0
LWAVE=.FALSE.
LCHARG=.FALSE.
LSTOP=.FALSE.

NELM = 100
ISIF = 2

MDALGO = 2
NSW = 0
