SYSTEM = Al
PREC = Normal
ENCUT = 410
EDIFF = 1.0e-6

ISTART = 0
ICHARGE = 2
ISMEAR = 1
SIGMA = 0.1

NPAR = 4
NSIM = 4
KPAR = 4

NELMDL = -7

LREAL = A

NELM = 100
ISIF = 2

MDALGO = 2
NSW = 0
