System = Zn
ISMEAR = 2; SIGMA = 0.05;
ENMAX  =  600
EDIFF  = 0.1E-05

ISTART=1

NELMDL = -7

NCORE = 1
KPAR = 4

ISYM = 0
LWAVE=.FALSE.
LCHARG=.FALSE.
LSTOP=.FALSE.

NELM = 100
ISIF = 2

MDALGO = 2
NSW = 0
